10	5
0	2	6	1
1	1	10
2	1	11
3	1	5
4	1	3
5	2	11	2
6	2	7	9
7	1	4
8	1	11
9	1	11
10	1	11
11	0
0	0	0	0	0	0	0
1	5	5	4	4	3	2
2	10	4	1	2	2	4
3	5	4	1	2	1	2
4	3	1	3	3	5	4
5	10	4	4	2	5	2
6	8	4	2	5	4	5
7	8	5	4	2	4	2
8	4	1	4	5	3	5
9	6	2	2	2	3	5
10	9	4	4	4	5	5
11	0	0	0	0	0	0
5	5	5	5	5
